Geographic Exponential Decay
20 211 160 313 52 278 104 132 114 88 215 171 281 164 110 238 128 4 109 317 146
p edge 320 632
e 0 42 1.0
e 1 96 17.0
e 2 157 3.0
e 2 128 73.0
e 3 252 1.0
e 3 279 2.0
e 4 260 11.0
e 4 304 60.0
e 4 216 18.0
e 4 89 43.0
e 4 175 44.0
e 4 285 11.0
e 4 59 85.0
e 4 112 78.0
e 4 194 40.0
e 4 141 76.0
e 4 159 57.0
e 4 154 50.0
e 4 168 3.0
e 4 74 45.0
e 4 120 2.0
e 4 60 26.0
e 4 164 78.0
e 5 311 1.0
e 6 84 1.0
e 7 290 1.0
e 8 215 25.0
e 8 206 9.0
e 8 34 11.0
e 9 289 3.0
e 9 95 12.0
e 9 188 9.0
e 9 150 16.0
e 9 57 1.0
e 10 248 2.0
e 11 130 2.0
e 12 276 2.0
e 13 287 1.0
e 13 108 3.0
e 14 37 1.0
e 15 288 8.0
e 15 252 15.0
e 15 97 13.0
e 15 74 15.0
e 15 213 18.0
e 16 10 1.0
e 17 269 1.0
e 18 304 8.0
e 18 58 6.0
e 18 24 8.0
e 19 130 2.0
e 20 62 1.0
e 21 24 3.0
e 21 308 7.0
e 21 1 1.0
e 22 7 2.0
e 22 185 1.0
e 23 128 56.0
e 23 272 5.0
e 25 90 1.0
e 26 77 2.0
e 26 171 58.0
e 27 259 7.0
e 28 271 4.0
e 28 129 4.0
e 29 198 1.0
e 29 165 5.0
e 30 50 1.0
e 30 234 1.0
e 31 153 5.0
e 32 1 1.0
e 33 223 1.0
e 35 318 5.0
e 35 229 6.0
e 35 310 11.0
e 36 146 66.0
e 37 2 4.0
e 38 66 5.0
e 38 206 3.0
e 39 128 28.0
e 39 61 8.0
e 39 315 11.0
e 40 41 2.0
e 43 308 1.0
e 44 258 2.0
e 45 174 1.0
e 46 202 3.0
e 46 80 5.0
e 47 12 11.0
e 47 67 8.0
e 47 167 1.0
e 48 148 2.0
e 49 149 21.0
e 49 13 8.0
e 49 208 16.0
e 49 223 5.0
e 49 282 19.0
e 50 117 5.0
e 51 220 4.0
e 52 184 62.0
e 52 155 62.0
e 52 150 58.0
e 52 266 77.0
e 52 33 98.0
e 52 229 83.0
e 52 259 77.0
e 52 82 35.0
e 52 297 83.0
e 52 6 66.0
e 52 205 11.0
e 52 197 51.0
e 52 235 69.0
e 52 59 47.0
e 52 224 79.0
e 52 67 90.0
e 52 90 40.0
e 53 314 1.0
e 53 316 1.0
e 54 99 1.0
e 54 55 9.0
e 54 284 8.0
e 56 288 6.0
e 56 62 4.0
e 57 290 1.0
e 63 307 3.0
e 63 210 11.0
e 64 107 5.0
e 64 86 2.0
e 64 113 12.0
e 65 151 5.0
e 65 202 3.0
e 66 294 10.0
e 68 179 6.0
e 69 242 7.0
e 69 20 6.0
e 70 147 1.0
e 71 256 1.0
e 72 54 5.0
e 73 124 2.0
e 74 66 9.0
e 74 23 10.0
e 74 80 11.0
e 75 49 11.0
e 76 161 8.0
e 76 108 6.0
e 76 9 13.0
e 77 12 4.0
e 78 262 2.0
e 78 242 11.0
e 79 104 53.0
e 79 264 4.0
e 81 266 1.0
e 81 161 11.0
e 81 180 4.0
e 83 273 12.0
e 83 67 5.0
e 83 274 5.0
e 84 72 1.0
e 85 2 5.0
e 85 21 1.0
e 87 261 1.0
e 88 101 96.0
e 88 254 33.0
e 88 305 18.0
e 88 298 39.0
e 88 219 35.0
e 88 251 82.0
e 88 75 87.0
e 88 139 59.0
e 88 116 69.0
e 88 56 90.0
e 88 31 57.0
e 88 257 93.0
e 88 163 74.0
e 88 194 79.0
e 88 120 78.0
e 88 18 23.0
e 88 215 38.0
e 91 150 1.0
e 92 133 5.0
e 93 253 3.0
e 94 129 3.0
e 95 58 20.0
e 95 82 18.0
e 95 224 22.0
e 95 245 2.0
e 96 116 43.0
e 96 133 9.0
e 96 108 21.0
e 96 91 16.0
e 98 101 1.0
e 99 155 1.0
e 100 19 2.0
e 100 99 10.0
e 100 216 1.0
e 102 147 3.0
e 103 31 4.0
e 103 311 4.0
e 104 124 82.0
e 104 56 14.0
e 104 68 28.0
e 104 165 10.0
e 104 36 4.0
e 104 114 3.0
e 104 142 13.0
e 104 105 68.0
e 104 208 70.0
e 104 174 18.0
e 104 144 59.0
e 104 232 65.0
e 104 186 36.0
e 104 158 53.0
e 104 210 23.0
e 104 163 87.0
e 106 177 2.0
e 109 51 9.0
e 109 84 21.0
e 109 140 8.0
e 109 221 94.0
e 109 46 29.0
e 109 219 35.0
e 109 7 33.0
e 109 121 68.0
e 109 49 67.0
e 109 31 61.0
e 109 47 3.0
e 109 255 64.0
e 109 298 97.0
e 109 248 85.0
e 109 106 5.0
e 109 284 3.0
e 109 118 38.0
e 110 206 13.0
e 110 195 33.0
e 110 293 34.0
e 110 274 90.0
e 110 207 58.0
e 110 173 6.0
e 110 2 6.0
e 110 205 44.0
e 110 311 41.0
e 110 103 64.0
e 110 223 60.0
e 110 96 97.0
e 110 191 55.0
e 110 310 33.0
e 110 267 35.0
e 110 216 98.0
e 110 239 18.0
e 111 169 22.0
e 111 289 4.0
e 114 133 60.0
e 114 222 39.0
e 114 3 99.0
e 114 137 38.0
e 114 310 79.0
e 114 163 79.0
e 114 142 36.0
e 114 77 74.0
e 114 78 4.0
e 114 261 29.0
e 114 215 20.0
e 114 238 10.0
e 114 315 69.0
e 114 40 26.0
e 114 256 83.0
e 114 253 12.0
e 115 118 11.0
e 115 100 7.0
e 116 210 30.0
e 116 136 11.0
e 116 277 48.0
e 116 152 16.0
e 116 70 6.0
e 116 49 18.0
e 116 212 40.0
e 118 217 8.0
e 119 56 5.0
e 122 255 4.0
e 122 115 5.0
e 123 273 1.0
e 125 188 1.0
e 126 145 2.0
e 127 318 6.0
e 127 319 3.0
e 128 246 15.0
e 128 291 97.0
e 128 316 38.0
e 128 216 33.0
e 128 100 55.0
e 128 168 61.0
e 128 163 3.0
e 128 38 5.0
e 128 287 67.0
e 128 69 97.0
e 128 40 27.0
e 128 25 2.0
e 128 272 80.0
e 128 143 62.0
e 131 144 5.0
e 131 275 5.0
e 131 147 11.0
e 132 127 45.0
e 132 293 62.0
e 132 255 55.0
e 132 179 57.0
e 132 244 42.0
e 132 174 49.0
e 132 198 95.0
e 132 279 35.0
e 132 149 1.0
e 132 74 90.0
e 132 135 93.0
e 132 20 22.0
e 132 37 24.0
e 132 147 26.0
e 132 245 51.0
e 132 68 66.0
e 132 75 67.0
e 134 314 3.0
e 138 47 11.0
e 138 276 2.0
e 141 111 10.0
e 141 77 9.0
e 146 231 56.0
e 146 110 71.0
e 146 62 55.0
e 146 1 58.0
e 146 97 3.0
e 146 205 10.0
e 146 269 87.0
e 146 101 54.0
e 146 276 36.0
e 146 281 4.0
e 146 230 31.0
e 146 263 2.0
e 146 232 26.0
e 146 82 90.0
e 146 224 93.0
e 146 150 73.0
e 148 307 5.0
e 149 302 20.0
e 149 168 5.0
e 149 110 20.0
e 152 189 18.0
e 152 190 18.0
e 152 301 15.0
e 152 271 12.0
e 153 10 6.0
e 156 144 14.0
e 156 204 18.0
e 156 176 9.0
e 156 315 13.0
e 156 128 30.0
e 156 21 38.0
e 156 228 9.0
e 156 304 5.0
e 156 50 36.0
e 157 88 31.0
e 158 195 3.0
e 159 248 2.0
e 160 156 78.0
e 160 14 6.0
e 160 46 48.0
e 160 253 100.0
e 160 41 83.0
e 160 251 62.0
e 160 294 42.0
e 160 159 53.0
e 160 145 98.0
e 160 303 16.0
e 160 125 54.0
e 160 89 26.0
e 160 138 26.0
e 160 273 4.0
e 160 161 75.0
e 160 114 90.0
e 160 112 10.0
e 162 168 3.0
e 162 190 1.0
e 164 116 89.0
e 164 183 38.0
e 164 239 53.0
e 164 176 19.0
e 164 88 69.0
e 164 78 70.0
e 164 317 40.0
e 164 311 22.0
e 164 236 11.0
e 164 296 76.0
e 164 86 29.0
e 164 211 3.0
e 164 218 2.0
e 164 257 93.0
e 164 248 56.0
e 164 118 71.0
e 166 237 5.0
e 166 103 1.0
e 169 159 13.0
e 169 234 10.0
e 169 120 24.0
e 169 20 23.0
e 170 304 12.0
e 170 265 1.0
e 170 29 6.0
e 171 6 68.0
e 171 42 28.0
e 171 139 27.0
e 171 69 39.0
e 171 305 47.0
e 171 192 60.0
e 171 130 46.0
e 171 247 36.0
e 171 244 58.0
e 171 272 82.0
e 171 128 94.0
e 171 267 80.0
e 171 143 91.0
e 171 148 47.0
e 171 208 36.0
e 171 314 88.0
e 172 107 2.0
e 172 205 1.0
e 175 229 2.0
e 178 65 4.0
e 178 201 6.0
e 178 143 3.0
e 180 21 5.0
e 181 227 1.0
e 182 41 2.0
e 182 149 19.0
e 187 98 1.0
e 187 26 5.0
e 189 215 61.0
e 189 264 11.0
e 191 119 6.0
e 191 35 2.0
e 193 250 5.0
e 194 288 3.0
e 196 39 8.0
e 196 291 2.0
e 197 284 1.0
e 197 199 3.0
e 200 264 1.0
e 201 128 90.0
e 203 235 2.0
e 204 295 4.0
e 204 133 2.0
e 209 48 3.0
e 209 301 5.0
e 209 0 3.0
e 211 53 10.0
e 211 237 68.0
e 211 310 2.0
e 211 16 27.0
e 211 88 25.0
e 211 84 68.0
e 211 252 80.0
e 211 162 48.0
e 211 305 66.0
e 211 132 40.0
e 211 61 12.0
e 211 272 79.0
e 211 153 31.0
e 211 189 70.0
e 211 255 13.0
e 211 22 53.0
e 213 144 39.0
e 213 62 37.0
e 213 242 18.0
e 213 17 47.0
e 213 92 49.0
e 213 185 40.0
e 213 135 40.0
e 213 110 72.0
e 214 219 13.0
e 214 226 11.0
e 214 50 3.0
e 214 220 22.0
e 214 300 7.0
e 215 286 56.0
e 215 164 77.0
e 215 207 24.0
e 215 16 14.0
e 215 261 80.0
e 215 68 82.0
e 215 157 94.0
e 215 213 66.0
e 215 92 68.0
e 215 82 74.0
e 215 91 9.0
e 215 195 19.0
e 215 5 94.0
e 222 293 3.0
e 222 281 77.0
e 222 288 4.0
e 222 167 16.0
e 224 83 13.0
e 224 44 15.0
e 225 71 1.0
e 225 206 2.0
e 233 131 7.0
e 237 22 7.0
e 237 100 12.0
e 237 307 5.0
e 238 219 100.0
e 238 246 62.0
e 238 281 87.0
e 238 141 86.0
e 238 106 60.0
e 238 228 49.0
e 238 182 91.0
e 238 180 32.0
e 238 63 15.0
e 238 233 62.0
e 238 92 88.0
e 238 261 48.0
e 238 203 70.0
e 238 60 83.0
e 238 83 86.0
e 238 305 39.0
e 240 69 3.0
e 240 60 5.0
e 241 45 1.0
e 242 254 15.0
e 242 118 1.0
e 243 300 1.0
e 249 113 1.0
e 249 165 4.0
e 250 278 97.0
e 251 306 47.0
e 251 207 5.0
e 251 181 27.0
e 251 286 43.0
e 251 112 16.0
e 251 12 26.0
e 251 46 48.0
e 258 96 18.0
e 259 208 1.0
e 262 28 6.0
e 263 156 1.0
e 263 15 20.0
e 263 204 14.0
e 263 164 13.0
e 268 37 2.0
e 270 172 5.0
e 270 7 6.0
e 275 153 1.0
e 277 309 22.0
e 278 136 72.0
e 278 29 34.0
e 278 260 89.0
e 278 212 46.0
e 278 84 81.0
e 278 220 15.0
e 278 47 80.0
e 278 94 12.0
e 278 177 89.0
e 278 223 73.0
e 278 149 22.0
e 278 173 95.0
e 278 188 57.0
e 278 277 22.0
e 278 119 61.0
e 278 167 3.0
e 279 96 13.0
e 280 229 6.0
e 280 312 3.0
e 281 172 12.0
e 281 250 47.0
e 281 41 51.0
e 281 262 8.0
e 281 50 63.0
e 281 263 21.0
e 281 115 51.0
e 281 0 91.0
e 281 120 57.0
e 281 83 88.0
e 281 36 96.0
e 281 221 84.0
e 281 23 76.0
e 281 218 78.0
e 283 259 4.0
e 283 161 1.0
e 283 86 4.0
e 292 302 2.0
e 292 101 9.0
e 292 280 2.0
e 294 149 24.0
e 296 140 2.0
e 297 269 5.0
e 299 32 1.0
e 303 70 2.0
e 308 89 3.0
e 309 272 4.0
e 309 48 13.0
e 309 89 1.0
e 309 303 17.0
e 313 171 76.0
e 313 119 55.0
e 313 48 82.0
e 313 290 15.0
e 313 70 18.0
e 313 215 67.0
e 313 85 69.0
e 313 124 42.0
e 313 4 61.0
e 313 54 55.0
e 313 23 57.0
e 313 32 26.0
e 313 264 94.0
e 313 244 21.0
e 313 271 55.0
e 313 25 86.0
e 313 51 96.0
e 317 10 21.0
e 317 178 44.0
e 317 267 25.0
e 317 271 66.0
e 317 72 12.0
e 317 312 20.0
e 317 11 56.0
e 317 42 91.0
e 317 238 93.0
e 317 109 60.0
e 317 306 49.0
e 317 195 94.0
e 317 220 28.0
e 317 54 57.0
e 317 113 7.0
e 317 243 18.0
e 319 236 6.0
